set N := AA AB AC AD AE AF AG AH AI AJ AK AL AM AN AO AP AQ AR AS AT;

set T := AA AB AC AD AE AF AG AH AI AJ;

table	K={K}	u(K)	o(K)	o_(K):
	K	u	o	o_	:=
	1	26.54	AK	AL
	2	19.92	AM	AN
	3	10.00	AO	AP
	4	15.76	AQ	AR
	5	20.00	AS	AT
;

param c default 0 :=
AA	AB	1	20.90
AA	AB	2	25.45
AA	AB	3	20.69
AA	AB	4	26.21
AA	AB	5	14.25
AA	AC	1	75.36
AA	AC	2	91.76
AA	AC	3	74.59
AA	AC	4	94.49
AA	AC	5	51.36
AA	AD	1	41.80
AA	AD	2	50.90
AA	AD	3	41.38
AA	AD	4	52.41
AA	AD	5	28.49
AA	AE	1	93.48
AA	AE	2	113.82
AA	AE	3	92.52
AA	AE	4	117.20
AA	AE	5	63.71
AA	AF	1	75.36
AA	AF	2	91.76
AA	AF	3	74.59
AA	AF	4	94.49
AA	AF	5	51.36
AA	AG	1	104.51
AA	AG	2	127.25
AA	AG	3	103.44
AA	AG	4	131.03
AA	AG	5	71.23
AA	AH	1	41.80
AA	AH	2	50.90
AA	AH	3	41.38
AA	AH	4	52.41
AA	AH	5	28.49
AA	AI	1	146.31
AA	AI	2	178.15
AA	AI	3	144.82
AA	AI	4	183.45
AA	AI	5	99.72
AA	AJ	1	159.18
AA	AJ	2	193.83
AA	AJ	3	157.55
AA	AJ	4	199.59
AA	AJ	5	108.49
AA	AK	1	117.56
AA	AK	2	143.15
AA	AK	3	116.36
AA	AK	4	147.40
AA	AK	5	80.12
AA	AL	1	89.95
AA	AL	2	109.53
AA	AL	3	89.03
AA	AL	4	112.78
AA	AL	5	61.30
AA	AM	1	117.00
AA	AM	2	142.46
AA	AM	3	115.80
AA	AM	4	146.70
AA	AM	5	79.74
AA	AN	1	11.31
AA	AN	2	13.78
AA	AN	3	11.20
AA	AN	4	14.19
AA	AN	5	7.71
AA	AO	1	43.72
AA	AO	2	53.23
AA	AO	3	43.27
AA	AO	4	54.81
AA	AO	5	29.80
AA	AP	1	33.89
AA	AP	2	41.26
AA	AP	3	33.54
AA	AP	4	42.49
AA	AP	5	23.09
AA	AQ	1	36.39
AA	AQ	2	44.31
AA	AQ	3	36.02
AA	AQ	4	45.63
AA	AQ	5	24.80
AA	AR	1	12.12
AA	AR	2	14.76
AA	AR	3	12.00
AA	AR	4	15.20
AA	AR	5	8.26
AA	AS	1	127.46
AA	AS	2	155.19
AA	AS	3	126.15
AA	AS	4	159.81
AA	AS	5	86.87
AA	AT	1	80.80
AA	AT	2	98.39
AA	AT	3	79.98
AA	AT	4	101.31
AA	AT	5	55.07
AB	AA	1	20.90
AB	AA	2	25.45
AB	AA	3	20.69
AB	AA	4	26.21
AB	AA	5	14.25
AB	AC	1	93.48
AB	AC	2	113.82
AB	AC	3	92.52
AB	AC	4	117.20
AB	AC	5	63.71
AB	AD	1	46.74
AB	AD	2	56.91
AB	AD	3	46.26
AB	AD	4	58.60
AB	AD	5	31.85
AB	AE	1	104.51
AB	AE	2	127.25
AB	AE	3	103.44
AB	AE	4	131.03
AB	AE	5	71.23
AB	AF	1	88.68
AB	AF	2	107.98
AB	AF	3	87.77
AB	AF	4	111.19
AB	AF	5	60.44
AB	AG	1	121.88
AB	AG	2	148.40
AB	AG	3	120.63
AB	AG	4	152.81
AB	AG	5	83.06
AB	AH	1	62.71
AB	AH	2	76.35
AB	AH	3	62.06
AB	AH	4	78.62
AB	AH	5	42.74
AB	AI	1	147.80
AB	AI	2	179.96
AB	AI	3	146.29
AB	AI	4	185.31
AB	AI	5	100.73
AB	AJ	1	168.52
AB	AJ	2	205.19
AB	AJ	3	166.79
AB	AJ	4	211.29
AB	AJ	5	114.85
AB	AK	1	132.68
AB	AK	2	161.55
AB	AK	3	131.32
AB	AK	4	166.35
AB	AK	5	90.43
AB	AL	1	109.45
AB	AL	2	133.27
AB	AL	3	108.33
AB	AL	4	137.23
AB	AL	5	74.60
AB	AM	1	119.20
AB	AM	2	145.15
AB	AM	3	117.98
AB	AM	4	149.46
AB	AM	5	81.24
AB	AN	1	31.36
AB	AN	2	38.19
AB	AN	3	31.04
AB	AN	4	39.33
AB	AN	5	21.38
AB	AO	1	63.53
AB	AO	2	77.36
AB	AO	3	62.88
AB	AO	4	79.66
AB	AO	5	43.30
AB	AP	1	54.14
AB	AP	2	65.93
AB	AP	3	53.59
AB	AP	4	67.89
AB	AP	5	36.90
AB	AQ	1	53.54
AB	AQ	2	65.19
AB	AQ	3	52.99
AB	AQ	4	67.13
AB	AQ	5	36.49
AB	AR	1	32.15
AB	AR	2	39.14
AB	AR	3	31.82
AB	AR	4	40.30
AB	AR	5	21.91
AB	AS	1	132.92
AB	AS	2	161.85
AB	AS	3	131.56
AB	AS	4	166.66
AB	AS	5	90.59
AB	AT	1	100.43
AB	AT	2	122.29
AB	AT	3	99.40
AB	AT	4	125.92
AB	AT	5	68.45
AC	AA	1	75.36
AC	AA	2	91.76
AC	AA	3	74.59
AC	AA	4	94.49
AC	AA	5	51.36
AC	AB	1	93.48
AC	AB	2	113.82
AC	AB	3	92.52
AC	AB	4	117.20
AC	AB	5	63.71
AC	AD	1	62.71
AC	AD	2	76.35
AC	AD	3	62.06
AC	AD	4	78.62
AC	AD	5	42.74
AC	AE	1	46.74
AC	AE	2	56.91
AC	AE	3	46.26
AC	AE	4	58.60
AC	AE	5	31.85
AC	AF	1	106.58
AC	AF	2	129.77
AC	AF	3	105.49
AC	AF	4	133.63
AC	AF	5	72.64
AC	AG	1	106.58
AC	AG	2	129.77
AC	AG	3	105.49
AC	AG	4	133.63
AC	AG	5	72.64
AC	AH	1	46.74
AC	AH	2	56.91
AC	AH	3	46.26
AC	AH	4	58.60
AC	AH	5	31.85
AC	AI	1	121.88
AC	AI	2	148.40
AC	AI	3	120.63
AC	AI	4	152.81
AC	AI	5	83.06
AC	AJ	1	104.51
AC	AJ	2	127.25
AC	AJ	3	103.44
AC	AJ	4	131.03
AC	AJ	5	71.23
AC	AK	1	47.58
AC	AK	2	57.93
AC	AK	3	47.09
AC	AK	4	59.65
AC	AK	5	32.43
AC	AL	1	20.80
AC	AL	2	25.32
AC	AL	3	20.58
AC	AL	4	26.08
AC	AL	5	14.17
AC	AM	1	96.64
AC	AM	2	117.67
AC	AM	3	95.65
AC	AM	4	121.16
AC	AM	5	65.86
AC	AN	1	64.12
AC	AN	2	78.08
AC	AN	3	63.46
AC	AN	4	80.39
AC	AN	5	43.70
AC	AO	1	33.57
AC	AO	2	40.87
AC	AO	3	33.22
AC	AO	4	42.08
AC	AO	5	22.88
AC	AP	1	43.68
AC	AP	2	53.18
AC	AP	3	43.23
AC	AP	4	54.76
AC	AP	5	29.77
AC	AQ	1	76.02
AC	AQ	2	92.57
AC	AQ	3	75.25
AC	AQ	4	95.32
AC	AQ	5	51.81
AC	AR	1	63.33
AC	AR	2	77.11
AC	AR	3	62.68
AC	AR	4	79.40
AC	AR	5	43.16
AC	AS	1	92.17
AC	AS	2	112.23
AC	AS	3	91.22
AC	AS	4	115.56
AC	AS	5	62.82
AC	AT	1	16.15
AC	AT	2	19.66
AC	AT	3	15.98
AC	AT	4	20.24
AC	AT	5	11.00
AD	AA	1	41.80
AD	AA	2	50.90
AD	AA	3	41.38
AD	AA	4	52.41
AD	AA	5	28.49
AD	AB	1	46.74
AD	AB	2	56.91
AD	AB	3	46.26
AD	AB	4	58.60
AD	AB	5	31.85
AD	AC	1	62.71
AD	AC	2	76.35
AD	AC	3	62.06
AD	AC	4	78.62
AD	AC	5	42.74
AD	AE	1	59.12
AD	AE	2	71.99
AD	AE	3	58.51
AD	AE	4	74.12
AD	AE	5	40.29
AD	AF	1	112.56
AD	AF	2	137.06
AD	AF	3	111.41
AD	AF	4	141.13
AD	AF	5	76.71
AD	AG	1	133.84
AD	AG	2	162.96
AD	AG	3	132.47
AD	AG	4	167.81
AD	AG	5	91.21
AD	AH	1	59.12
AD	AH	2	71.99
AD	AH	3	58.51
AD	AH	4	74.12
AD	AH	5	40.29
AD	AI	1	104.51
AD	AI	2	127.25
AD	AI	3	103.44
AD	AI	4	131.03
AD	AI	5	71.23
AD	AJ	1	121.88
AD	AJ	2	148.40
AD	AJ	3	120.63
AD	AJ	4	152.81
AD	AJ	5	83.06
AD	AK	1	91.48
AD	AK	2	111.39
AD	AK	3	90.55
AD	AK	4	114.70
AD	AK	5	62.35
AD	AL	1	82.80
AD	AL	2	100.82
AD	AL	3	81.96
AD	AL	4	103.82
AD	AL	5	56.43
AD	AM	1	75.21
AD	AM	2	91.57
AD	AM	3	74.44
AD	AM	4	94.30
AD	AM	5	51.26
AD	AN	1	37.89
AD	AN	2	46.14
AD	AN	3	37.51
AD	AN	4	47.51
AD	AN	5	25.83
AD	AO	1	47.54
AD	AO	2	57.89
AD	AO	3	47.05
AD	AO	4	59.61
AD	AO	5	32.40
AD	AP	1	44.89
AD	AP	2	54.65
AD	AP	3	44.43
AD	AP	4	56.28
AD	AP	5	30.59
AD	AQ	1	71.86
AD	AQ	2	87.49
AD	AQ	3	71.12
AD	AQ	4	90.09
AD	AQ	5	48.97
AD	AR	1	37.78
AD	AR	2	46.00
AD	AR	3	37.39
AD	AR	4	47.36
AD	AR	5	25.75
AD	AS	1	86.72
AD	AS	2	105.59
AD	AS	3	85.83
AD	AS	4	108.73
AD	AS	5	59.10
AD	AT	1	75.43
AD	AT	2	91.85
AD	AT	3	74.66
AD	AT	4	94.58
AD	AT	5	51.41
AE	AA	1	93.48
AE	AA	2	113.82
AE	AA	3	92.52
AE	AA	4	117.20
AE	AA	5	63.71
AE	AB	1	104.51
AE	AB	2	127.25
AE	AB	3	103.44
AE	AB	4	131.03
AE	AB	5	71.23
AE	AC	1	46.74
AE	AC	2	56.91
AE	AC	3	46.26
AE	AC	4	58.60
AE	AC	5	31.85
AE	AD	1	59.12
AE	AD	2	71.99
AE	AD	3	58.51
AE	AD	4	74.12
AE	AD	5	40.29
AE	AF	1	146.31
AE	AF	2	178.15
AE	AF	3	144.82
AE	AF	4	183.45
AE	AF	5	99.72
AE	AG	1	152.17
AE	AG	2	185.28
AE	AG	3	150.61
AE	AG	4	190.79
AE	AG	5	103.71
AE	AH	1	83.61
AE	AH	2	101.80
AE	AH	3	82.75
AE	AH	4	104.83
AE	AH	5	56.98
AE	AI	1	75.36
AE	AI	2	91.76
AE	AI	3	74.59
AE	AI	4	94.49
AE	AI	5	51.36
AE	AJ	1	66.10
AE	AJ	2	80.48
AE	AJ	3	65.42
AE	AJ	4	82.87
AE	AJ	5	45.05
AE	AK	1	38.31
AE	AK	2	46.65
AE	AK	3	37.92
AE	AK	4	48.04
AE	AK	5	26.11
AE	AL	1	62.93
AE	AL	2	76.63
AE	AL	3	62.29
AE	AL	4	78.91
AE	AL	5	42.89
AE	AM	1	51.95
AE	AM	2	63.26
AE	AM	3	51.42
AE	AM	4	65.14
AE	AM	5	35.41
AE	AN	1	84.55
AE	AN	2	102.95
AE	AN	3	83.69
AE	AN	4	106.01
AE	AN	5	57.62
AE	AO	1	66.89
AE	AO	2	81.45
AE	AO	3	66.21
AE	AO	4	83.87
AE	AO	5	45.59
AE	AP	1	73.70
AE	AP	2	89.74
AE	AP	3	72.94
AE	AP	4	92.40
AE	AP	5	50.23
AE	AQ	1	109.70
AE	AQ	2	133.58
AE	AQ	3	108.58
AE	AQ	4	137.54
AE	AQ	5	74.77
AE	AR	1	83.97
AE	AR	2	102.24
AE	AR	3	83.11
AE	AR	4	105.28
AE	AR	5	57.23
AE	AS	1	45.46
AE	AS	2	55.35
AE	AS	3	44.99
AE	AS	4	57.00
AE	AS	5	30.98
AE	AT	1	62.07
AE	AT	2	75.58
AE	AT	3	61.44
AE	AT	4	77.83
AE	AT	5	42.30
AF	AA	1	75.36
AF	AA	2	91.76
AF	AA	3	74.59
AF	AA	4	94.49
AF	AA	5	51.36
AF	AB	1	88.68
AF	AB	2	107.98
AF	AB	3	87.77
AF	AB	4	111.19
AF	AB	5	60.44
AF	AC	1	106.58
AF	AC	2	129.77
AF	AC	3	105.49
AF	AC	4	133.63
AF	AC	5	72.64
AF	AD	1	112.56
AF	AD	2	137.06
AF	AD	3	111.41
AF	AD	4	141.13
AF	AD	5	76.71
AF	AE	1	146.31
AF	AE	2	178.15
AF	AE	3	144.82
AF	AE	4	183.45
AF	AE	5	99.72
AF	AG	1	41.80
AF	AG	2	50.90
AF	AG	3	41.38
AF	AG	4	52.41
AF	AG	5	28.49
AF	AH	1	62.71
AF	AH	2	76.35
AF	AH	3	62.06
AF	AH	4	78.62
AF	AH	5	42.74
AF	AI	1	213.16
AF	AI	2	259.55
AF	AI	3	210.98
AF	AI	4	267.26
AF	AI	5	145.27
AF	AJ	1	210.06
AF	AJ	2	255.78
AF	AJ	3	207.91
AF	AJ	4	263.38
AF	AJ	5	143.16
AF	AK	1	153.65
AF	AK	2	187.09
AF	AK	3	152.08
AF	AK	4	192.65
AF	AK	5	104.72
AF	AL	1	106.49
AF	AL	2	129.66
AF	AL	3	105.40
AF	AL	4	133.51
AF	AL	5	72.57
AF	AM	1	184.05
AF	AM	2	224.10
AF	AM	3	182.16
AF	AM	4	230.76
AF	AM	5	125.44
AF	AN	1	75.03
AF	AN	2	91.36
AF	AN	3	74.26
AF	AN	4	94.07
AF	AN	5	51.13
AF	AO	1	79.45
AF	AO	2	96.74
AF	AO	3	78.63
AF	AO	4	99.61
AF	AO	5	54.15
AF	AP	1	73.87
AF	AP	2	89.95
AF	AP	3	73.11
AF	AP	4	92.62
AF	AP	5	50.35
AF	AQ	1	40.71
AF	AQ	2	49.56
AF	AQ	3	40.29
AF	AQ	4	51.04
AF	AQ	5	27.74
AF	AR	1	75.02
AF	AR	2	91.35
AF	AR	3	74.26
AF	AR	4	94.06
AF	AR	5	51.13
AF	AS	1	188.84
AF	AS	2	229.94
AF	AS	3	186.91
AF	AS	4	236.77
AF	AS	5	128.70
AF	AT	1	99.23
AF	AT	2	120.83
AF	AT	3	98.22
AF	AT	4	124.42
AF	AT	5	67.63
AG	AA	1	104.51
AG	AA	2	127.25
AG	AA	3	103.44
AG	AA	4	131.03
AG	AA	5	71.23
AG	AB	1	121.88
AG	AB	2	148.40
AG	AB	3	120.63
AG	AB	4	152.81
AG	AB	5	83.06
AG	AC	1	106.58
AG	AC	2	129.77
AG	AC	3	105.49
AG	AC	4	133.63
AG	AC	5	72.64
AG	AD	1	133.84
AG	AD	2	162.96
AG	AD	3	132.47
AG	AD	4	167.81
AG	AD	5	91.21
AG	AE	1	152.17
AG	AE	2	185.28
AG	AE	3	150.61
AG	AE	4	190.79
AG	AE	5	103.71
AG	AF	1	41.80
AG	AF	2	50.90
AG	AF	3	41.38
AG	AF	4	52.41
AG	AF	5	28.49
AG	AH	1	75.36
AG	AH	2	91.76
AG	AH	3	74.59
AG	AH	4	94.49
AG	AH	5	51.36
AG	AI	1	225.12
AG	AI	2	274.11
AG	AI	3	222.82
AG	AI	4	282.26
AG	AI	5	153.43
AG	AJ	1	210.06
AG	AJ	2	255.78
AG	AJ	3	207.91
AG	AJ	4	263.38
AG	AJ	5	143.16
AG	AK	1	148.86
AG	AK	2	181.26
AG	AK	3	147.34
AG	AK	4	186.64
AG	AK	5	101.45
AG	AL	1	98.38
AG	AL	2	119.79
AG	AL	3	97.37
AG	AL	4	123.35
AG	AL	5	67.05
AG	AM	1	197.36
AG	AM	2	240.31
AG	AM	3	195.34
AG	AM	4	247.45
AG	AM	5	134.51
AG	AN	1	100.17
AG	AN	2	121.97
AG	AN	3	99.15
AG	AN	4	125.60
AG	AN	5	68.27
AG	AO	1	90.43
AG	AO	2	110.11
AG	AO	3	89.50
AG	AO	4	113.38
AG	AO	5	61.63
AG	AP	1	89.48
AG	AP	2	108.95
AG	AP	3	88.56
AG	AP	4	112.19
AG	AP	5	60.98
AG	AQ	1	68.48
AG	AQ	2	83.38
AG	AQ	3	67.78
AG	AQ	4	85.86
AG	AQ	5	46.67
AG	AR	1	99.86
AG	AR	2	121.59
AG	AR	3	98.84
AG	AR	4	125.21
AG	AR	5	68.06
AG	AS	1	197.31
AG	AS	2	240.25
AG	AS	3	195.29
AG	AS	4	247.39
AG	AS	5	134.48
AG	AT	1	94.07
AG	AT	2	114.54
AG	AT	3	93.11
AG	AT	4	117.94
AG	AT	5	64.11
AH	AA	1	41.80
AH	AA	2	50.90
AH	AA	3	41.38
AH	AA	4	52.41
AH	AA	5	28.49
AH	AB	1	62.71
AH	AB	2	76.35
AH	AB	3	62.06
AH	AB	4	78.62
AH	AB	5	42.74
AH	AC	1	46.74
AH	AC	2	56.91
AH	AC	3	46.26
AH	AC	4	58.60
AH	AC	5	31.85
AH	AD	1	59.12
AH	AD	2	71.99
AH	AD	3	58.51
AH	AD	4	74.12
AH	AD	5	40.29
AH	AE	1	83.61
AH	AE	2	101.80
AH	AE	3	82.75
AH	AE	4	104.83
AH	AE	5	56.98
AH	AF	1	62.71
AH	AF	2	76.35
AH	AF	3	62.06
AH	AF	4	78.62
AH	AF	5	42.74
AH	AG	1	75.36
AH	AG	2	91.76
AH	AG	3	74.59
AH	AG	4	94.49
AH	AG	5	51.36
AH	AI	1	152.17
AH	AI	2	185.28
AH	AI	3	150.61
AH	AI	4	190.79
AH	AI	5	103.71
AH	AJ	1	147.80
AH	AJ	2	179.96
AH	AJ	3	146.29
AH	AJ	4	185.31
AH	AJ	5	100.73
AH	AK	1	94.22
AH	AK	2	114.72
AH	AK	3	93.25
AH	AK	4	118.13
AH	AK	5	64.21
AH	AL	1	54.17
AH	AL	2	65.96
AH	AL	3	53.62
AH	AL	4	67.92
AH	AL	5	36.92
AH	AM	1	123.57
AH	AM	2	150.47
AH	AM	3	122.31
AH	AM	4	154.94
AH	AM	5	84.22
AH	AN	1	32.22
AH	AN	2	39.23
AH	AN	3	31.89
AH	AN	4	40.39
AH	AN	5	21.96
AH	AO	1	16.79
AH	AO	2	20.44
AH	AO	3	16.62
AH	AO	4	21.05
AH	AO	5	11.44
AH	AP	1	14.25
AH	AP	2	17.36
AH	AP	3	14.11
AH	AP	4	17.87
AH	AP	5	9.71
AH	AQ	1	29.36
AH	AQ	2	35.74
AH	AQ	3	29.06
AH	AQ	4	36.81
AH	AQ	5	20.01
AH	AR	1	31.55
AH	AR	2	38.42
AH	AR	3	31.23
AH	AR	4	39.56
AH	AR	5	21.50
AH	AS	1	126.57
AH	AS	2	154.12
AH	AS	3	125.28
AH	AS	4	158.70
AH	AS	5	86.26
AH	AT	1	45.12
AH	AT	2	54.94
AH	AT	3	44.66
AH	AT	4	56.57
AH	AT	5	30.75
AI	AA	1	146.31
AI	AA	2	178.15
AI	AA	3	144.82
AI	AA	4	183.45
AI	AA	5	99.72
AI	AB	1	147.80
AI	AB	2	179.96
AI	AB	3	146.29
AI	AB	4	185.31
AI	AB	5	100.73
AI	AC	1	121.88
AI	AC	2	148.40
AI	AC	3	120.63
AI	AC	4	152.81
AI	AC	5	83.06
AI	AD	1	104.51
AI	AD	2	127.25
AI	AD	3	103.44
AI	AD	4	131.03
AI	AD	5	71.23
AI	AE	1	75.36
AI	AE	2	91.76
AI	AE	3	74.59
AI	AE	4	94.49
AI	AE	5	51.36
AI	AF	1	213.16
AI	AF	2	259.55
AI	AF	3	210.98
AI	AF	4	267.26
AI	AF	5	145.27
AI	AG	1	225.12
AI	AG	2	274.11
AI	AG	3	222.82
AI	AG	4	282.26
AI	AG	5	153.43
AI	AH	1	152.17
AI	AH	2	185.28
AI	AH	3	150.61
AI	AH	4	190.79
AI	AH	5	103.71
AI	AJ	1	62.71
AI	AJ	2	76.35
AI	AJ	3	62.06
AI	AJ	4	78.62
AI	AJ	5	42.74
AI	AK	1	100.15
AI	AK	2	121.94
AI	AK	3	99.12
AI	AK	4	125.57
AI	AK	5	68.26
AI	AL	1	138.06
AI	AL	2	168.11
AI	AL	3	136.65
AI	AL	4	173.10
AI	AL	5	94.10
AI	AM	1	29.40
AI	AM	2	35.79
AI	AM	3	29.09
AI	AM	4	36.86
AI	AM	5	20.03
AI	AN	1	141.41
AI	AN	2	172.19
AI	AN	3	139.96
AI	AN	4	177.30
AI	AN	5	96.38
AI	AO	1	135.73
AI	AO	2	165.27
AI	AO	3	134.34
AI	AO	4	170.18
AI	AO	5	92.51
AI	AP	1	139.54
AI	AP	2	169.91
AI	AP	3	138.11
AI	AP	4	174.96
AI	AP	5	95.10
AI	AQ	1	173.35
AI	AQ	2	211.08
AI	AQ	3	171.58
AI	AQ	4	217.35
AI	AQ	5	118.15
AI	AR	1	141.13
AI	AR	2	171.85
AI	AR	3	139.69
AI	AR	4	176.95
AI	AR	5	96.19
AI	AS	1	31.62
AI	AS	2	38.50
AI	AS	3	31.29
AI	AS	4	39.64
AI	AS	5	21.55
AI	AT	1	137.42
AI	AT	2	167.33
AI	AT	3	136.01
AI	AT	4	172.30
AI	AT	5	93.66
AJ	AA	1	159.18
AJ	AA	2	193.83
AJ	AA	3	157.55
AJ	AA	4	199.59
AJ	AA	5	108.49
AJ	AB	1	168.52
AJ	AB	2	205.19
AJ	AB	3	166.79
AJ	AB	4	211.29
AJ	AB	5	114.85
AJ	AC	1	104.51
AJ	AC	2	127.25
AJ	AC	3	103.44
AJ	AC	4	131.03
AJ	AC	5	71.23
AJ	AD	1	121.88
AJ	AD	2	148.40
AJ	AD	3	120.63
AJ	AD	4	152.81
AJ	AD	5	83.06
AJ	AE	1	66.10
AJ	AE	2	80.48
AJ	AE	3	65.42
AJ	AE	4	82.87
AJ	AE	5	45.05
AJ	AF	1	210.06
AJ	AF	2	255.78
AJ	AF	3	207.91
AJ	AF	4	263.38
AJ	AF	5	143.16
AJ	AG	1	210.06
AJ	AG	2	255.78
AJ	AG	3	207.91
AJ	AG	4	263.38
AJ	AG	5	143.16
AJ	AH	1	147.80
AJ	AH	2	179.96
AJ	AH	3	146.29
AJ	AH	4	185.31
AJ	AH	5	100.73
AJ	AI	1	62.71
AJ	AI	2	76.35
AJ	AI	3	62.06
AJ	AI	4	78.62
AJ	AI	5	42.74
AJ	AK	1	62.64
AJ	AK	2	76.28
AJ	AK	3	62.00
AJ	AK	4	78.54
AJ	AK	5	42.69
AJ	AL	1	112.42
AJ	AL	2	136.88
AJ	AL	3	111.27
AJ	AL	4	140.95
AJ	AL	5	76.62
AJ	AM	1	67.43
AJ	AM	2	82.10
AJ	AM	3	66.74
AJ	AM	4	84.54
AJ	AM	5	45.95
AJ	AN	1	150.57
AJ	AN	2	183.34
AJ	AN	3	149.03
AJ	AN	4	188.79
AJ	AN	5	102.62
AJ	AO	1	131.49
AJ	AO	2	160.11
AJ	AO	3	130.14
AJ	AO	4	164.86
AJ	AO	5	89.62
AJ	AP	1	139.16
AJ	AP	2	169.44
AJ	AP	3	137.73
AJ	AP	4	174.48
AJ	AP	5	94.84
AJ	AQ	1	175.12
AJ	AQ	2	213.23
AJ	AQ	3	173.33
AJ	AQ	4	219.57
AJ	AQ	5	119.35
AJ	AR	1	150.00
AJ	AR	2	182.65
AJ	AR	3	148.47
AJ	AR	4	188.08
AJ	AR	5	102.23
AJ	AS	1	44.43
AJ	AS	2	54.10
AJ	AS	3	43.97
AJ	AS	4	55.71
AJ	AS	5	30.28
AJ	AT	1	115.99
AJ	AT	2	141.24
AJ	AT	3	114.81
AJ	AT	4	145.43
AJ	AT	5	79.05
AK	AA	1	117.56
AK	AA	2	143.15
AK	AA	3	116.36
AK	AA	4	147.40
AK	AA	5	80.12
AK	AB	1	132.68
AK	AB	2	161.55
AK	AB	3	131.32
AK	AB	4	166.35
AK	AB	5	90.43
AK	AC	1	47.58
AK	AC	2	57.93
AK	AC	3	47.09
AK	AC	4	59.65
AK	AC	5	32.43
AK	AD	1	91.48
AK	AD	2	111.39
AK	AD	3	90.55
AK	AD	4	114.70
AK	AD	5	62.35
AK	AE	1	38.31
AK	AE	2	46.65
AK	AE	3	37.92
AK	AE	4	48.04
AK	AE	5	26.11
AK	AF	1	153.65
AK	AF	2	187.09
AK	AF	3	152.08
AK	AF	4	192.65
AK	AF	5	104.72
AK	AG	1	148.86
AK	AG	2	181.26
AK	AG	3	147.34
AK	AG	4	186.64
AK	AG	5	101.45
AK	AH	1	94.22
AK	AH	2	114.72
AK	AH	3	93.25
AK	AH	4	118.13
AK	AH	5	64.21
AK	AI	1	100.15
AK	AI	2	121.94
AK	AI	3	99.12
AK	AI	4	125.57
AK	AI	5	68.26
AK	AJ	1	62.64
AK	AJ	2	76.28
AK	AJ	3	62.00
AK	AJ	4	78.54
AK	AJ	5	42.69
AL	AA	1	89.95
AL	AA	2	109.53
AL	AA	3	89.03
AL	AA	4	112.78
AL	AA	5	61.30
AL	AB	1	109.45
AL	AB	2	133.27
AL	AB	3	108.33
AL	AB	4	137.23
AL	AB	5	74.60
AL	AC	1	20.80
AL	AC	2	25.32
AL	AC	3	20.58
AL	AC	4	26.08
AL	AC	5	14.17
AL	AD	1	82.80
AL	AD	2	100.82
AL	AD	3	81.96
AL	AD	4	103.82
AL	AD	5	56.43
AL	AE	1	62.93
AL	AE	2	76.63
AL	AE	3	62.29
AL	AE	4	78.91
AL	AE	5	42.89
AL	AF	1	106.49
AL	AF	2	129.66
AL	AF	3	105.40
AL	AF	4	133.51
AL	AF	5	72.57
AL	AG	1	98.38
AL	AG	2	119.79
AL	AG	3	97.37
AL	AG	4	123.35
AL	AG	5	67.05
AL	AH	1	54.17
AL	AH	2	65.96
AL	AH	3	53.62
AL	AH	4	67.92
AL	AH	5	36.92
AL	AI	1	138.06
AL	AI	2	168.11
AL	AI	3	136.65
AL	AI	4	173.10
AL	AI	5	94.10
AL	AJ	1	112.42
AL	AJ	2	136.88
AL	AJ	3	111.27
AL	AJ	4	140.95
AL	AJ	5	76.62
AM	AA	1	117.00
AM	AA	2	142.46
AM	AA	3	115.80
AM	AA	4	146.70
AM	AA	5	79.74
AM	AB	1	119.20
AM	AB	2	145.15
AM	AB	3	117.98
AM	AB	4	149.46
AM	AB	5	81.24
AM	AC	1	96.64
AM	AC	2	117.67
AM	AC	3	95.65
AM	AC	4	121.16
AM	AC	5	65.86
AM	AD	1	75.21
AM	AD	2	91.57
AM	AD	3	74.44
AM	AD	4	94.30
AM	AD	5	51.26
AM	AE	1	51.95
AM	AE	2	63.26
AM	AE	3	51.42
AM	AE	4	65.14
AM	AE	5	35.41
AM	AF	1	184.05
AM	AF	2	224.10
AM	AF	3	182.16
AM	AF	4	230.76
AM	AF	5	125.44
AM	AG	1	197.36
AM	AG	2	240.31
AM	AG	3	195.34
AM	AG	4	247.45
AM	AG	5	134.51
AM	AH	1	123.57
AM	AH	2	150.47
AM	AH	3	122.31
AM	AH	4	154.94
AM	AH	5	84.22
AM	AI	1	29.40
AM	AI	2	35.79
AM	AI	3	29.09
AM	AI	4	36.86
AM	AI	5	20.03
AM	AJ	1	67.43
AM	AJ	2	82.10
AM	AJ	3	66.74
AM	AJ	4	84.54
AM	AJ	5	45.95
AN	AA	1	11.31
AN	AA	2	13.78
AN	AA	3	11.20
AN	AA	4	14.19
AN	AA	5	7.71
AN	AB	1	31.36
AN	AB	2	38.19
AN	AB	3	31.04
AN	AB	4	39.33
AN	AB	5	21.38
AN	AC	1	64.12
AN	AC	2	78.08
AN	AC	3	63.46
AN	AC	4	80.39
AN	AC	5	43.70
AN	AD	1	37.89
AN	AD	2	46.14
AN	AD	3	37.51
AN	AD	4	47.51
AN	AD	5	25.83
AN	AE	1	84.55
AN	AE	2	102.95
AN	AE	3	83.69
AN	AE	4	106.01
AN	AE	5	57.62
AN	AF	1	75.03
AN	AF	2	91.36
AN	AF	3	74.26
AN	AF	4	94.07
AN	AF	5	51.13
AN	AG	1	100.17
AN	AG	2	121.97
AN	AG	3	99.15
AN	AG	4	125.60
AN	AG	5	68.27
AN	AH	1	32.22
AN	AH	2	39.23
AN	AH	3	31.89
AN	AH	4	40.39
AN	AH	5	21.96
AN	AI	1	141.41
AN	AI	2	172.19
AN	AI	3	139.96
AN	AI	4	177.30
AN	AI	5	96.38
AN	AJ	1	150.57
AN	AJ	2	183.34
AN	AJ	3	149.03
AN	AJ	4	188.79
AN	AJ	5	102.62
AO	AA	1	43.72
AO	AA	2	53.23
AO	AA	3	43.27
AO	AA	4	54.81
AO	AA	5	29.80
AO	AB	1	63.53
AO	AB	2	77.36
AO	AB	3	62.88
AO	AB	4	79.66
AO	AB	5	43.30
AO	AC	1	33.57
AO	AC	2	40.87
AO	AC	3	33.22
AO	AC	4	42.08
AO	AC	5	22.88
AO	AD	1	47.54
AO	AD	2	57.89
AO	AD	3	47.05
AO	AD	4	59.61
AO	AD	5	32.40
AO	AE	1	66.89
AO	AE	2	81.45
AO	AE	3	66.21
AO	AE	4	83.87
AO	AE	5	45.59
AO	AF	1	79.45
AO	AF	2	96.74
AO	AF	3	78.63
AO	AF	4	99.61
AO	AF	5	54.15
AO	AG	1	90.43
AO	AG	2	110.11
AO	AG	3	89.50
AO	AG	4	113.38
AO	AG	5	61.63
AO	AH	1	16.79
AO	AH	2	20.44
AO	AH	3	16.62
AO	AH	4	21.05
AO	AH	5	11.44
AO	AI	1	135.73
AO	AI	2	165.27
AO	AI	3	134.34
AO	AI	4	170.18
AO	AI	5	92.51
AO	AJ	1	131.49
AO	AJ	2	160.11
AO	AJ	3	130.14
AO	AJ	4	164.86
AO	AJ	5	89.62
AP	AA	1	33.89
AP	AA	2	41.26
AP	AA	3	33.54
AP	AA	4	42.49
AP	AA	5	23.09
AP	AB	1	54.14
AP	AB	2	65.93
AP	AB	3	53.59
AP	AB	4	67.89
AP	AB	5	36.90
AP	AC	1	43.68
AP	AC	2	53.18
AP	AC	3	43.23
AP	AC	4	54.76
AP	AC	5	29.77
AP	AD	1	44.89
AP	AD	2	54.65
AP	AD	3	44.43
AP	AD	4	56.28
AP	AD	5	30.59
AP	AE	1	73.70
AP	AE	2	89.74
AP	AE	3	72.94
AP	AE	4	92.40
AP	AE	5	50.23
AP	AF	1	73.87
AP	AF	2	89.95
AP	AF	3	73.11
AP	AF	4	92.62
AP	AF	5	50.35
AP	AG	1	89.48
AP	AG	2	108.95
AP	AG	3	88.56
AP	AG	4	112.19
AP	AG	5	60.98
AP	AH	1	14.25
AP	AH	2	17.36
AP	AH	3	14.11
AP	AH	4	17.87
AP	AH	5	9.71
AP	AI	1	139.54
AP	AI	2	169.91
AP	AI	3	138.11
AP	AI	4	174.96
AP	AI	5	95.10
AP	AJ	1	139.16
AP	AJ	2	169.44
AP	AJ	3	137.73
AP	AJ	4	174.48
AP	AJ	5	94.84
AQ	AA	1	36.39
AQ	AA	2	44.31
AQ	AA	3	36.02
AQ	AA	4	45.63
AQ	AA	5	24.80
AQ	AB	1	53.54
AQ	AB	2	65.19
AQ	AB	3	52.99
AQ	AB	4	67.13
AQ	AB	5	36.49
AQ	AC	1	76.02
AQ	AC	2	92.57
AQ	AC	3	75.25
AQ	AC	4	95.32
AQ	AC	5	51.81
AQ	AD	1	71.86
AQ	AD	2	87.49
AQ	AD	3	71.12
AQ	AD	4	90.09
AQ	AD	5	48.97
AQ	AE	1	109.70
AQ	AE	2	133.58
AQ	AE	3	108.58
AQ	AE	4	137.54
AQ	AE	5	74.77
AQ	AF	1	40.71
AQ	AF	2	49.56
AQ	AF	3	40.29
AQ	AF	4	51.04
AQ	AF	5	27.74
AQ	AG	1	68.48
AQ	AG	2	83.38
AQ	AG	3	67.78
AQ	AG	4	85.86
AQ	AG	5	46.67
AQ	AH	1	29.36
AQ	AH	2	35.74
AQ	AH	3	29.06
AQ	AH	4	36.81
AQ	AH	5	20.01
AQ	AI	1	173.35
AQ	AI	2	211.08
AQ	AI	3	171.58
AQ	AI	4	217.35
AQ	AI	5	118.15
AQ	AJ	1	175.12
AQ	AJ	2	213.23
AQ	AJ	3	173.33
AQ	AJ	4	219.57
AQ	AJ	5	119.35
AR	AA	1	12.12
AR	AA	2	14.76
AR	AA	3	12.00
AR	AA	4	15.20
AR	AA	5	8.26
AR	AB	1	32.15
AR	AB	2	39.14
AR	AB	3	31.82
AR	AB	4	40.30
AR	AB	5	21.91
AR	AC	1	63.33
AR	AC	2	77.11
AR	AC	3	62.68
AR	AC	4	79.40
AR	AC	5	43.16
AR	AD	1	37.78
AR	AD	2	46.00
AR	AD	3	37.39
AR	AD	4	47.36
AR	AD	5	25.75
AR	AE	1	83.97
AR	AE	2	102.24
AR	AE	3	83.11
AR	AE	4	105.28
AR	AE	5	57.23
AR	AF	1	75.02
AR	AF	2	91.35
AR	AF	3	74.26
AR	AF	4	94.06
AR	AF	5	51.13
AR	AG	1	99.86
AR	AG	2	121.59
AR	AG	3	98.84
AR	AG	4	125.21
AR	AG	5	68.06
AR	AH	1	31.55
AR	AH	2	38.42
AR	AH	3	31.23
AR	AH	4	39.56
AR	AH	5	21.50
AR	AI	1	141.13
AR	AI	2	171.85
AR	AI	3	139.69
AR	AI	4	176.95
AR	AI	5	96.19
AR	AJ	1	150.00
AR	AJ	2	182.65
AR	AJ	3	148.47
AR	AJ	4	188.08
AR	AJ	5	102.23
AS	AA	1	127.46
AS	AA	2	155.19
AS	AA	3	126.15
AS	AA	4	159.81
AS	AA	5	86.87
AS	AB	1	132.92
AS	AB	2	161.85
AS	AB	3	131.56
AS	AB	4	166.66
AS	AB	5	90.59
AS	AC	1	92.17
AS	AC	2	112.23
AS	AC	3	91.22
AS	AC	4	115.56
AS	AC	5	62.82
AS	AD	1	86.72
AS	AD	2	105.59
AS	AD	3	85.83
AS	AD	4	108.73
AS	AD	5	59.10
AS	AE	1	45.46
AS	AE	2	55.35
AS	AE	3	44.99
AS	AE	4	57.00
AS	AE	5	30.98
AS	AF	1	188.84
AS	AF	2	229.94
AS	AF	3	186.91
AS	AF	4	236.77
AS	AF	5	128.70
AS	AG	1	197.31
AS	AG	2	240.25
AS	AG	3	195.29
AS	AG	4	247.39
AS	AG	5	134.48
AS	AH	1	126.57
AS	AH	2	154.12
AS	AH	3	125.28
AS	AH	4	158.70
AS	AH	5	86.26
AS	AI	1	31.62
AS	AI	2	38.50
AS	AI	3	31.29
AS	AI	4	39.64
AS	AI	5	21.55
AS	AJ	1	44.43
AS	AJ	2	54.10
AS	AJ	3	43.97
AS	AJ	4	55.71
AS	AJ	5	30.28
AT	AA	1	80.80
AT	AA	2	98.39
AT	AA	3	79.98
AT	AA	4	101.31
AT	AA	5	55.07
AT	AB	1	100.43
AT	AB	2	122.29
AT	AB	3	99.40
AT	AB	4	125.92
AT	AB	5	68.45
AT	AC	1	16.15
AT	AC	2	19.66
AT	AC	3	15.98
AT	AC	4	20.24
AT	AC	5	11.00
AT	AD	1	75.43
AT	AD	2	91.85
AT	AD	3	74.66
AT	AD	4	94.58
AT	AD	5	51.41
AT	AE	1	62.07
AT	AE	2	75.58
AT	AE	3	61.44
AT	AE	4	77.83
AT	AE	5	42.30
AT	AF	1	99.23
AT	AF	2	120.83
AT	AF	3	98.22
AT	AF	4	124.42
AT	AF	5	67.63
AT	AG	1	94.07
AT	AG	2	114.54
AT	AG	3	93.11
AT	AG	4	117.94
AT	AG	5	64.11
AT	AH	1	45.12
AT	AH	2	54.94
AT	AH	3	44.66
AT	AH	4	56.57
AT	AH	5	30.75
AT	AI	1	137.42
AT	AI	2	167.33
AT	AI	3	136.01
AT	AI	4	172.30
AT	AI	5	93.66
AT	AJ	1	115.99
AT	AJ	2	141.24
AT	AJ	3	114.81
AT	AJ	4	145.43
AT	AJ	5	79.05
;

table R={R}  q(R)  p(R)  d(R):
	R	q	p	d	:=
	1	10.0	AA	AF
	2	10.0	AB	AG
	3	20.0	AC	AH
	4	20.0	AD	AI
	5	20.0	AE	AJ
;

